8,1,8,2,1,1,9,1,4,1,10,1,6,1,9,3,7,4,9,5;5,1,1,2,5,2,5,3,7,2,5,4,3,2,2,5,6,2,6,3,9,4,3,5,6,5;2,1,2,2,1,3,3,1,11,3,7,3,10,2,4,4,10,3,3,4,11,5;8,3,8,4,9,2,1,4,4,2,2,4,4,3,3,3,11,4,10,4,6,4,4,5;11,1,11,2,7,1,2,3,5,5,8,5,1,5,10,5,7,5;
